language ESSENCE' 1.0
letting lastdx=82
letting cage be [
[14,12,10,0,0, 0,0, 0,0, 0,0],
[15,6,2,6,1,5,1,5,2,0,0],
[15,10,16,10,15,0,0, 0,0, 0,0],
[29,1,3,1,2,2,2,2,1,1,1],
[11,14,14,0,0, 0,0, 0,0, 0,0],
[5,11,2,0,0, 0,0, 0,0, 0,0],
[4,7,6,0,0, 0,0, 0,0, 0,0],
[6,6,4,0,0, 0,0, 0,0, 0,0],
[11,8,7,0,0, 0,0, 0,0, 0,0],
[32,14,11,14,12,15,12,15,13,0,0],
[16,2,10,0,0, 0,0, 0,0, 0,0],
[3,8,13,0,0, 0,0, 0,0, 0,0],
[21,2,12,2,13,0,0, 0,0, 0,0],
[38,16,10,16,11,16,12,16,13,16,14],
[4,1,9,0,0, 0,0, 0,0, 0,0],
[60,7,1,7,2,7,3,8,3,8,2],
[8,15,6,16,6,0,0, 0,0, 0,0],
[6,5,13,0,0, 0,0, 0,0, 0,0],
[7,11,13,0,0, 0,0, 0,0, 0,0],
[26,6,8,6,7,7,7,5,7,0,0],
[21,3,4,3,3,0,0, 0,0, 0,0],
[10,6,9,0,0, 0,0, 0,0, 0,0],
[16,13,13,14,13,0,0, 0,0, 0,0],
[48,6,16,6,15,6,14,6,13,7,13],
[36,3,15,4,15,4,16,5,16,0,0],
[16,11,15,12,15,0,0, 0,0, 0,0],
[22,2,9,3,9,3,10,0,0, 0,0],
[10,8,4,0,0, 0,0, 0,0, 0,0],
[15,15,11,15,10,0,0, 0,0, 0,0],
[15,14,15,0,0, 0,0, 0,0, 0,0],
[23,9,13,9,12,8,12,0,0, 0,0],
[16,10,5,0,0, 0,0, 0,0, 0,0],
[5,12,7,0,0, 0,0, 0,0, 0,0],
[18,7,4,7,5,0,0, 0,0, 0,0],
[36,3,13,3,14,4,14,5,14,5,15],
[49,4,12,4,13,4,11,3,11,3,12],
[2,16,2,0,0, 0,0, 0,0, 0,0],
[23,8,15,8,14,7,14,0,0, 0,0],
[40,4,10,4,9,5,9,5,10,6,10],
[40,11,3,11,4,12,4,12,3,12,2],
[18,11,9,11,10,10,10,0,0, 0,0],
[17,2,14,1,14,0,0, 0,0, 0,0],
[23,1,7,1,6,0,0, 0,0, 0,0],
[29,6,5,5,5,4,5,3,5,0,0],
[5,16,8,0,0, 0,0, 0,0, 0,0],
[40,14,3,14,2,13,2,13,3,13,4],
[9,11,8,0,0, 0,0, 0,0, 0,0],
[57,2,5,2,6,2,7,2,8,1,8],
[33,14,8,14,9,14,10,13,10,13,11],
[43,15,14,15,15,16,15,16,16,15,16],
[29,10,9,9,9,9,10,9,11,0,0],
[35,2,11,1,11,1,10,1,12,1,13],
[14,16,4,0,0, 0,0, 0,0, 0,0],
[40,11,7,10,7,10,8,10,6,11,6],
[11,11,5,0,0, 0,0, 0,0, 0,0],
[40,12,1,11,1,10,1,10,2,0,0],
[13,15,5,16,5,0,0, 0,0, 0,0],
[47,13,8,13,9,12,9,12,8,0,0],
[46,8,9,8,10,8,11,7,11,7,10],
[8,8,16,0,0, 0,0, 0,0, 0,0],
[17,13,5,12,5,12,6,0,0, 0,0],
[48,11,12,10,12,10,13,10,14,9,14],
[52,14,5,14,6,13,6,13,7,0,0],
[14,6,12,7,12,0,0, 0,0, 0,0],
[25,5,6,6,6,4,6,4,7,0,0],
[14,1,4,1,5,0,0, 0,0, 0,0],
[38,1,15,1,16,2,16,2,15,3,16],
[14,2,3,2,4,0,0, 0,0, 0,0],
[25,3,1,4,1,0,0, 0,0, 0,0],
[25,4,4,5,4,0,0, 0,0, 0,0],
[34,5,11,5,12,6,11,0,0, 0,0],
[25,7,15,7,16,0,0, 0,0, 0,0],
[38,8,1,9,1,9,2,9,3,10,3],
[31,9,4,9,5,10,4,0,0, 0,0],
[25,9,15,9,16,0,0, 0,0, 0,0],
[25,11,14,12,14,12,13,0,0, 0,0],
[27,11,16,12,16,13,16,14,16,0,0],
[40,13,1,14,1,15,1,16,1,0,0],
[17,13,14,13,15,0,0, 0,0, 0,0],
[20,14,4,15,4,0,0, 0,0, 0,0],
[26,14,7,15,7,16,7,0,0, 0,0],
[20,15,2,15,3,16,3,0,0, 0,0],
[32,15,8,15,9,16,9,0,0, 0,0]
]
